(declare-fun temp5830_2 () (_ BitVec 64))
(declare-fun temp5830_1 () (_ BitVec 64))
(declare-fun temp5830_3 () (_ BitVec 64))
(declare-fun var463945 () (_ BitVec 64))
(declare-fun temp5830_4 () (_ BitVec 64))
(declare-fun var788278 () (_ BitVec 64))
(declare-fun var987356 () (_ BitVec 64))
(declare-fun temp5830_5 () (_ BitVec 64))
(declare-fun var1184087 () (_ BitVec 64))
(declare-fun temp5830_6 () (_ BitVec 64))
(declare-fun var1184088 () (_ BitVec 64))
(declare-fun temp5830_7 () (_ BitVec 64))
(declare-fun temp5830_8 () (_ BitVec 64))
(declare-fun var464053 () (_ BitVec 64))
(declare-fun k!0 () Bool)
(declare-fun ARGNAME_n_NAMEEND () (_ BitVec 64))
(declare-fun var1509582 () (_ BitVec 64))
(declare-fun temp5830_9 () (_ BitVec 64))
(declare-fun temp5830_10 () (_ BitVec 64))
(declare-fun var1509628 () (_ BitVec 64))
(declare-fun var1509659 () (_ BitVec 64))
(declare-fun var1509580 () (_ BitVec 64))
(declare-fun var464128 () (_ BitVec 64))
(declare-fun temp5830_11 () (_ BitVec 64))
(declare-fun var464149 () (_ BitVec 64))
(declare-fun var2495819 () (_ BitVec 64))
(assert (= temp5830_2 #x0000000000000000))
(assert (= temp5830_1 temp5830_2))
(assert (= temp5830_3 #x0000000000000000))
(assert (= var463945 temp5830_3))
(assert (= temp5830_4 #x0000000000000001))
(assert (= var788278 temp5830_4))
(assert (= var987356 var788278))
(assert (= temp5830_5 #x0000000000000000))
(assert (= var1184087 temp5830_5))
(assert (= temp5830_6 #x0000000000000000))
(assert (= var1184088 temp5830_6))
(assert (= temp5830_7 #x0000000000000001))
(assert (= var464053
   (ite (bvslt ARGNAME_n_NAMEEND temp5830_7)
        #x0000000000000001
        #x0000000000000000)))
(assert (= temp5830_8 #x0000000000000000))
(assert (= var464053 temp5830_8))
(assert (= var1509582 var463945))
(assert (= temp5830_9 #x0000000000000002))
(assert (= temp5830_10 #x0000000000000000))
(assert (= var1509628 (ite (= var1509582 #x0000000000000001) temp5830_9 temp5830_10)))
(assert (= var1509659 var1509628))
(assert (= var1509580 var1509659))
(assert (= var464128 var1509580))
(assert (= temp5830_11 #x0000000000000000))
(assert (= var463945 temp5830_11))
(assert (= var464149 var464128))
(assert (= var2495819 var464149))
(model-add temp5830_2 () (_ BitVec 64) #x0000000000000000)
(model-add temp5830_1 () (_ BitVec 64) #x0000000000000000)
(model-add temp5830_3 () (_ BitVec 64) #x0000000000000000)
(model-add var463945 () (_ BitVec 64) #x0000000000000000)
(model-add temp5830_4 () (_ BitVec 64) #x0000000000000001)
(model-add var788278 () (_ BitVec 64) #x0000000000000001)
(model-add var987356 () (_ BitVec 64) #x0000000000000001)
(model-add temp5830_5 () (_ BitVec 64) #x0000000000000000)
(model-add var1184087 () (_ BitVec 64) #x0000000000000000)
(model-add temp5830_6 () (_ BitVec 64) #x0000000000000000)
(model-add var1184088 () (_ BitVec 64) #x0000000000000000)
(model-add temp5830_7 () (_ BitVec 64) #x0000000000000001)
(model-add temp5830_8 () (_ BitVec 64) #x0000000000000000)
(model-add var464053 () (_ BitVec 64) #x0000000000000000)
(model-del k!0)
(model-add ARGNAME_n_NAMEEND
           ()
           (_ BitVec 64)
           (ite (or k!0 (= #x0000000000000001 #x8000000000000000))
                #x0000000000000001
                (bvsub #x0000000000000001 #x0000000000000001)))






